10
0 244 17 36 678 12 51 188 306 176
244 0 50 342 360 121 746 262 133 172
17 50 0 475 335 37 26 521 174 195
36 342 475 0 329 34 134 234 19 335
678 360 335 329 0 3 21 98 201 161
12 121 37 34 3 0 90 315 282 757
51 746 26 134 21 90 0 61 140 744
188 262 521 234 98 315 61 0 173 145
306 133 174 19 201 282 140 173 0 1
176 172 195 335 161 757 744 145 1 0